Optimal - objective value 2176.00000000
      0 y_0_2                    1                     520
      1 y_0_4                    0                     730
      2 y_0_5                    1                     835
      3 y_3_4                    0                    1043
      4 y_0_1                    1                     821
      5 f_0_1_0_0                1                       0
      6 f_0_0_2_1                1                       0
      7 f_0_0_4_1                0                       0
      8 f_0_0_5_1                0                       0
      9 f_0_1_0_1                0                       0
     10 f_0_0_2_2                0                       0
     11 f_1_5_0_0                4                       0
     12 f_1_0_2_1                4                       0
     13 f_1_0_4_1                0                       0
     14 f_1_5_0_1                0                       0
     15 f_1_0_1_1                0                       0
     16 f_1_0_2_2                0                       0
